(declare-datatype Nat ((zero) (succ (p Nat))))
(declare-datatype list ((nil) (cons (head Nat) (tail list))))
(declare-datatype
  pair ((pair2 (proj1-pair list) (proj2-pair list))))
(define-fun-rec
  take
  ((x Nat) (y list)) list
  (match x
    ((zero nil)
     ((succ z)
      (match y
        ((nil nil)
         ((cons z2 xs) (cons z2 (take z xs)))))))))
(define-fun-rec
  plus
  ((x Nat) (y Nat)) Nat
  (match x
    ((zero y)
     ((succ z) (succ (plus z y))))))
(define-fun-rec
  minus
  ((x Nat) (y Nat)) Nat
  (match x
    ((zero zero)
     ((succ z)
      (match y
        ((zero zero)
         ((succ y2) (minus z y2))))))))
(define-fun-rec
  third
  ((x Nat)) Nat
  (ite
    (= x (succ (succ zero))) zero
    (ite
      (= x (succ zero)) zero
      (match x
        ((zero zero)
         ((succ y)
          (plus (succ zero)
            (third (minus (succ y) (succ (succ (succ zero))))))))))))
(define-fun-rec
  twoThirds
  ((x Nat)) Nat
  (ite
    (= x (succ (succ zero))) (succ zero)
    (ite
      (= x (succ zero)) (succ zero)
      (match x
        ((zero zero)
         ((succ y)
          (plus (succ (succ zero))
            (twoThirds (minus (succ y) (succ (succ (succ zero))))))))))))
(define-fun-rec
  leq
  ((x Nat) (y Nat)) Bool
  (match x
    ((zero true)
     ((succ z)
      (match y
        ((zero false)
         ((succ x2) (leq z x2))))))))
(define-fun
  sort2
  ((x Nat) (y Nat)) list
  (ite (leq x y) (cons x (cons y nil)) (cons y (cons x nil))))
(define-fun-rec
  length
  ((x list)) Nat
  (match x
    ((nil zero)
     ((cons y l) (plus (succ zero) (length l))))))
(define-fun-rec
  drop
  ((x Nat) (y list)) list
  (match x
    ((zero y)
     ((succ z)
      (match y
        ((nil nil)
         ((cons z2 xs1) (drop z xs1))))))))
(define-fun
  splitAt
  ((x Nat) (y list)) pair (pair2 (take x y) (drop x y)))
(define-fun-rec
  count
  ((x Nat) (y list)) Nat
  (match y
    ((nil zero)
     ((cons z ys)
      (ite (= x z) (plus (succ zero) (count x ys)) (count x ys))))))
(define-fun-rec
  ++
  ((x list) (y list)) list
  (match x
    ((nil y)
     ((cons z xs) (cons z (++ xs y))))))
(define-funs-rec
  ((nstooge2sort2
    ((x list)) list)
   (nstoogesort2
    ((x list)) list)
   (nstooge2sort1
    ((x list)) list))
  ((match (splitAt (twoThirds (length x)) x)
     (((pair2 ys1 zs) (++ (nstoogesort2 ys1) zs))))
   (match x
     ((nil nil)
      ((cons y z)
       (match z
         ((nil (cons y nil))
          ((cons y2 x2)
           (match x2
             ((nil (sort2 y y2))
              ((cons x3 x4)
               (nstooge2sort2
                 (nstooge2sort1
                   (nstooge2sort2 (cons y (cons y2 (cons x3 x4)))))))))))))))
   (match (splitAt (third (length x)) x)
     (((pair2 ys1 zs) (++ ys1 (nstoogesort2 zs)))))))
(assert
  (forall ((x Nat) (y Nat) (z Nat))
    (= (plus x (plus y z)) (plus (plus x y) z))))
(assert (forall ((x Nat) (y Nat)) (= (plus x y) (plus y x))))
(assert (forall ((x Nat)) (= (plus x zero) x)))
(assert (forall ((x Nat)) (= (plus zero x) x)))
(assert
  (not
    (forall ((x Nat) (xs list))
      (= (count x (nstoogesort2 xs)) (count x xs)))))
(check-sat)
